11949
0 0 0 0 1 1 0 1 1 1 1 0 0 1 0 0 1 0 1 0 1 1 1 0 0 1 0 0 0 0
21 10 7 16 20 8 21 18 21 13 20 16 18 25 16 22 13 18 7 5 21 16 18 7 16 22 20 16 5 13 4 13 10 9 4 21 16 21 7 5 4 16 18 10 4 7 20 16 5 7 22 13 8 7 13 21 20 8 5 5 22 13 8 7 9 4 13 22 9 21 20 22 18 18 4 10 7 8 7 7 4 13 10 10 4 20 20 21 7 5 4 13 8 9 4 8 16 18 21 5 4 13 10 9 4 22 20 8 25 9 10 20 8 5 9 22 8 8 7 5 10 20 8 5 13 21 18 9 5 5 22 13 8 7 9 21 20 8 25 5 8 13 18 10 21 22 16 8 25 5